20 64 
1 5 1
1 8 1
1 17 1
2 5 1
2 6 1
2 7 1
2 9 1
2 10 1
2 11 1
2 12 1
2 13 1
2 16 1
2 17 1
2 18 1
2 19 1
2 20 1
3 5 1
3 6 1
3 11 1
3 14 1
3 20 1
4 5 1
4 6 1
4 7 1
4 8 1
4 9 1
4 10 1
4 11 1
4 12 1
4 14 1
4 16 1
5 6 1
5 7 1
5 8 1
6 7 1
6 8 1
6 9 1
6 12 1
6 16 1
6 17 1
6 19 1
7 13 1
7 18 1
8 9 1
8 10 1
8 11 1
8 12 1
8 13 1
8 15 1
8 16 1
8 18 1
9 10 1
9 14 1
9 15 1
10 19 1
11 13 1
11 14 1
11 15 1
11 20 1
12 17 1
14 15 1
14 20 1
15 18 1
15 19 1
